39 44 99 76 38 37 27 18 52 81 55 5 75 74 100 25 77 50 31 
6 78 41 46 21 65 49 85 22 
20 45 40 33 89 92 23 47 59 
10 67 15 84 56 48 17 73 4 29 71 13 80 95 16 
14 34 2 61 28 9 8 87 24 42 53 54 19 57 66 82 93 
79 58 
96 94 72 43 7 62 69 70 30 11 88 1 63 32 3 90 35 36 60 68 51 64 83 86 91 98 97 12 26 

